-6377097066863270256
-6377097066863270184
-6377097066863270164
-6377097066863270162
-6377097066863270160
-6377097066863270156
-6377097066863270154
-6377097066863270148
-6377097066863270144
-6377097066863270132
-6377097066863270130
-6377097066863270128
-6377097066863270126
-6377097066863270084
-6377097066863270070
-6377097066863270068
-6377097066863270066
-6377097066863270060
-6377097066863270050
-6377097066863270040
-6377097066863270038
-6377097066863270004
-6377097066863270002
-6377097066863269998
-6377097066863269994
-6377097066863269992
-6377097066863269988
-6377097066863269938
-6377097066863269938
-9187343227799135196
